DATASET = "thpack2";
INSTANCE = "062";

WIDTH = 233;
HEIGHT = 220;
LENGTH = 587;

NO_OF_SHAPES = 5;
size = [|
  70,63,50 |
  100,53,34 |
  93,78,45 |
  100,55,48 |
  98,73,50 |
|];

verticality = [|
  1,1,1 |
  0,1,1 |
  0,1,1 |
  0,1,1 |
  1,1,1 |
|];

box_count = [
  21,
  17,
  19,
  26,
  26,
];
